NAME : berlin52-R-5-1-c.10940.tour
COMMENT : Length = 10940
COMMENT : Found by LKH-3 [Keld Helsgaun] Tue Jul 30 13:14:23 2024
TYPE : TOUR
DIMENSION : 52
TOUR_SECTION
1
18
3
49
34
39
40
38
48
46
12
11
13
27
47
29
30
23
21
42
2
7
17
19
10
9
15
6
4
25
28
26
14
52
51
33
43
8
41
45
32
36
35
37
5
24
44
16
50
20
31
22
-1
EOF
